WARNING: for repeatability, setting FPU to use double precision
============================[ Problem Statistics ]=============================
|                                                                             |
|  Number of variables:            50                                         |
|  Number of clauses:             218                                         |
|  Parse time:                   0.00 s                                       |
|                                                                             |
============================[ Search Statistics ]==============================
| Conflicts |          ORIGINAL         |          LEARNT          | Progress |
|           |    Vars  Clauses Literals |    Limit  Clauses Lit/Cl |          |
===============================================================================
===============================================================================
restarts              : 1
conflicts             : 16             (11594 /sec)
decisions             : 33             (0.00 % random) (23913 /sec)
propagations          : 248            (179710 /sec)
conflict literals     : 84             (3.45 % deleted)
Memory used           : 20.00 MB
CPU time              : 0.00138 s

SATISFIABLE
